CPXPARAM_TimeLimit                               1800
CPXPARAM_Read_DataCheck                          1
CPXPARAM_MIP_Strategy_HeuristicFreq              -1
Parallel mode: deterministic, using up to 8 threads for concurrent optimization.
Tried aggregator 1 time.
LP Presolve eliminated 89 rows and 20475 columns.
Reduced LP has 10021 rows, 1801 columns, and 29267 nonzeros.
Presolve time = 0.00 sec. (8.38 ticks)

Iteration log . . .
Iteration:     1   Dual objective     =           911.000000
Perturbation started.
Iteration:   204   Dual objective     =           911.000000
Initializing dual steep norms . . .
Iteration:   205   Dual objective     =           911.000198
Iteration:   489   Dual objective     =           911.013216
Iteration:   690   Dual objective     =           911.014625
Iteration:   922   Dual objective     =           911.014992
Iteration:  1117   Dual objective     =           911.015388
Iteration:  1317   Dual objective     =           911.015663
Iteration:  1535   Dual objective     =           911.015698
Iteration:  1749   Dual objective     =           911.016121
Iteration:  2013   Dual objective     =           911.016186
Iteration:  2275   Dual objective     =           911.016872
Removing perturbation.

Dual simplex solved model.

